NAME          ClpDefau
ROWS
 N  OBJROW
 L  R_204_0
 L  R_204_1
 L  R_204_2
 L  R_204_3
 L  R_204_4
 L  R_204_5
 L  R_204_6
 L  R_204_7
 L  R_204_8
 L  R_204_9
 L  R_204_10
 L  R_204_11
 L  R_204_12
 L  R_204_13
 L  R_204_14
 L  R_204_15
COLUMNS
    x_0       OBJROW     -8.           R_204_2   3.          
    x_0       R_204_4   6.             R_204_5   9.          
    x_0       R_204_9   8.          
    x_1       OBJROW     -12.          R_204_2   7.          
    x_2       OBJROW     -11.          R_204_5   10.         
    x_3       OBJROW     -47.          R_204_4   6.          
    x_3       R_204_7   2.             R_204_8   1.          
    x_3       R_204_12  9.             R_204_13  5.          
    x_4       OBJROW     -22.          R_204_3   6.          
    x_4       R_204_6   2.             R_204_8   1.          
    x_4       R_204_10  3.             R_204_13  10.         
    x_4       R_204_14  4.             R_204_15  1.          
    x_5       OBJROW     -95.          R_204_0   10.         
    x_5       R_204_8   5.          
    x_6       OBJROW     -86.          R_204_0   8.          
    x_7       OBJROW     -40.          R_204_0   3.          
    x_7       R_204_1   4.          
    x_8       OBJROW     -33.          R_204_0   1.          
    x_8       R_204_2   9.             R_204_5   3.          
    x_8       R_204_7   1.          
    x_9       OBJROW     -78.          R_204_3   7.          
    x_9       R_204_9   2.             R_204_14  7.          
    x_9       R_204_15  5.          
    x_10      OBJROW     -28.          R_204_0   1.          
    x_10      R_204_2   8.             R_204_6   1.          
    x_10      R_204_9   8.             R_204_10  10.         
    x_10      R_204_13  6.             R_204_15  2.          
    x_11      OBJROW     -78.          R_204_0   10.         
    x_11      R_204_5   8.          
    x_12      OBJROW     -5.           R_204_12  6.          
    x_12      R_204_13  9.             R_204_14  7.          
    x_13      OBJROW     -75.          R_204_4   5.          
    x_13      R_204_9   5.             R_204_10  9.          
    x_14      OBJROW     -88.          R_204_1   3.          
    x_14      R_204_8   8.             R_204_14  5.          
    x_15      OBJROW     -21.       
    x_16      OBJROW     -56.          R_204_0   8.          
    x_16      R_204_4   2.             R_204_5   4.          
    x_16      R_204_10  9.             R_204_12  10.         
    x_17      OBJROW     -82.          R_204_0   7.          
    x_17      R_204_3   4.             R_204_10  10.         
    x_18      OBJROW     -51.          R_204_0   2.          
    x_18      R_204_10  8.             R_204_14  9.          
    x_19      OBJROW     -93.          R_204_0   1.          
    x_19      R_204_10  6.          
    x_20      OBJROW     -66.          R_204_1   4.          
    x_20      R_204_13  7.          
    x_21      OBJROW     -48.          R_204_6   8.          
    x_21      R_204_10  4.             R_204_14  3.          
    x_22      OBJROW     -70.       
    x_23      OBJROW     -57.          R_204_6   6.          
    x_23      R_204_8   3.             R_204_12  3.          
    x_24      OBJROW     -65.          R_204_8   6.          
    x_24      R_204_14  6.          
    x_25      OBJROW     -35.          R_204_7   3.          
    x_25      R_204_8   2.             R_204_11  9.          
    x_25      R_204_13  10.         
    x_26      OBJROW     -5.           R_204_0   8.          
    x_26      R_204_5   9.             R_204_13  2.          
    x_27      OBJROW     -4.           R_204_0   9.          
    x_27      R_204_2   5.             R_204_8   7.          
    x_27      R_204_10  8.             R_204_11  8.          
    x_27      R_204_15  9.          
    x_28      OBJROW     -47.          R_204_1   9.          
    x_28      R_204_7   8.             R_204_8   9.          
    x_28      R_204_9   2.          
    x_29      OBJROW     -60.          R_204_7   4.          
    x_29      R_204_8   4.          
    x_30      OBJROW     -41.          R_204_8   9.          
    x_30      R_204_12  3.          
    x_31      OBJROW     -49.          R_204_1   4.          
    x_31      R_204_4   4.             R_204_6   9.          
    x_31      R_204_9   8.             R_204_12  6.          
RHS
    RHS       R_204_0   41.            R_204_1   33.         
    RHS       R_204_2   38.            R_204_3   38.         
    RHS       R_204_4   42.            R_204_5   32.         
    RHS       R_204_6   39.            R_204_7   36.         
    RHS       R_204_8   42.            R_204_9   33.         
    RHS       R_204_10  42.            R_204_11  36.         
    RHS       R_204_12  32.            R_204_13  35.         
    RHS       R_204_14  38.            R_204_15  37.         
BOUNDS
 UI BOUND     x_0       100.        
 UI BOUND     x_1       100.        
 UI BOUND     x_2       100.        
 UI BOUND     x_3       100.        
 UI BOUND     x_4       100.        
 UI BOUND     x_5       100.        
 UI BOUND     x_6       100.        
 UI BOUND     x_7       100.        
 UI BOUND     x_8       100.        
 UI BOUND     x_9       100.        
 UI BOUND     x_10      100.        
 UI BOUND     x_11      100.        
 UI BOUND     x_12      100.        
 UI BOUND     x_13      100.        
 UI BOUND     x_14      100.        
 UI BOUND     x_15      100.        
 UI BOUND     x_16      100.        
 UI BOUND     x_17      100.        
 UI BOUND     x_18      100.        
 UI BOUND     x_19      100.        
 UI BOUND     x_20      100.        
 UI BOUND     x_21      100.        
 UI BOUND     x_22      100.        
 UI BOUND     x_23      100.        
 UI BOUND     x_24      100.        
 UI BOUND     x_25      100.        
 UI BOUND     x_26      100.        
 UI BOUND     x_27      100.        
 UI BOUND     x_28      100.        
 UI BOUND     x_29      100.        
 UI BOUND     x_30      100.        
 UI BOUND     x_31      100.        
ENDATA
